<?xml version = "1.0" encoding="UTF-8" standalone="yes"?>
<CPLEXSolution version="1.2">
 <header
   problemName="exo2tp1.lp"
   objectiveValue="14620.5511695668"
   solutionTypeValue="1"
   solutionTypeString="basic"
   solutionStatusValue="1"
   solutionStatusString="optimal"
   solutionMethodString="dual"
   primalFeasible="1"
   dualFeasible="1"
   simplexIterations="18"
   writeLevel="1"/>
 <quality
   epRHS="1e-06"
   epOpt="1e-06"
   maxPrimalInfeas="0"
   maxDualInfeas="0"
   maxPrimalResidual="2.48689957516035e-13"
   maxDualResidual="6.66133814775094e-15"
   maxX="135.862988947308"
   maxPi="77.3310354369801"
   maxSlack="682.259534777724"
   maxRedCost="425.320694903391"
   kappa="23.023181421915"/>
 <linearConstraints>
  <constraint name="c1" index="0" status="BS" slack="235.479677046538" dual="-0"/>
  <constraint name="c2" index="1" status="BS" slack="197.862630833591" dual="-0"/>
  <constraint name="c3" index="2" status="BS" slack="248.539628538408" dual="-0"/>
  <constraint name="c4" index="3" status="LL" slack="0" dual="2.47733302947927"/>
  <constraint name="c5" index="4" status="LL" slack="0" dual="2.47733302947927"/>
  <constraint name="c6" index="5" status="LL" slack="0" dual="77.3310354369801"/>
  <constraint name="c7" index="6" status="BS" slack="0.976055214624182" dual="-0"/>
  <constraint name="c8" index="7" status="LL" slack="0" dual="9.17719303957156"/>
  <constraint name="c9" index="8" status="BS" slack="75.711938209106" dual="-0"/>
  <constraint name="c10" index="9" status="BS" slack="14.60897237641" dual="-0"/>
  <constraint name="c11" index="10" status="BS" slack="138.112154705126" dual="-0"/>
  <constraint name="c12" index="11" status="BS" slack="235.479677046538" dual="-0"/>
  <constraint name="c13" index="12" status="BS" slack="682.259534777724" dual="-0"/>
  <constraint name="c14" index="13" status="LL" slack="0" dual="0.27250663324272"/>
  <constraint name="c15" index="14" status="LL" slack="0" dual="0.27250663324272"/>
  <constraint name="c16" index="15" status="LL" slack="0" dual="-13.625331662136"/>
  <constraint name="c17" index="16" status="LL" slack="0" dual="13.625331662136"/>
 </linearConstraints>
 <variables>
  <variable name="x" index="0" status="LL" value="0" reducedCost="-77.1858838083766"/>
  <variable name="y" index="1" status="BS" value="55.3384988524083" reducedCost="-0"/>
  <variable name="z" index="2" status="BS" value="5.86053098497548" reducedCost="-0"/>
  <variable name="t" index="3" status="LL" value="0" reducedCost="-8.46098513828074"/>
  <variable name="r" index="4" status="BS" value="54.3715918154738" reducedCost="-0"/>
  <variable name="s1" index="5" status="BS" value="40.476513215432" reducedCost="-0"/>
  <variable name="s2" index="6" status="BS" value="11.8181818181818" reducedCost="-0"/>
  <variable name="s3" index="7" status="LL" value="0" reducedCost="-425.320694903391"/>
  <variable name="s4" index="8" status="BS" value="49.6284081845262" reducedCost="-0"/>
  <variable name="s5" index="9" status="LL" value="0" reducedCost="-50.4745617176436"/>
  <variable name="Oy" index="10" status="LL" value="0" reducedCost="-0"/>
  <variable name="s6" index="11" status="BS" value="33.9398857291683" reducedCost="-0"/>
  <variable name="st" index="12" status="BS" value="135.862988947308" reducedCost="-0"/>
 </variables>
</CPLEXSolution>
